40 5
83 51 90 96 92 68 8 11 34 93 5 59 22 88 61 44 19 32 18 63 31 30 23 85 78 9 51 67 56 73 49 49 89 8 88 78 52 50 54 44 
4 85 11 89 86 12 82 94 96 95 72 67 97 69 73 19 11 47 69 77 74 82 73 34 94 72 4 1 28 48 2 53 67 17 11 23 18 30 87 30 
42 89 96 83 33 57 88 12 84 15 11 66 40 17 78 62 89 94 1 23 74 34 53 15 60 99 26 18 76 86 65 65 52 8 65 37 32 39 68 86 
28 2 30 25 40 51 92 21 1 53 30 81 62 91 34 85 41 92 92 93 70 76 6 25 44 44 71 14 94 13 42 61 98 11 10 92 14 89 73 18 
49 61 41 60 56 60 1 68 47 93 16 82 80 21 57 42 98 85 56 7 61 2 14 58 13 54 32 81 69 3 30 76 8 8 73 91 91 30 40 77 
